c status 11 1469274320782
c status 10 1469274320784
s td 7 10 16
b 1 2 1 8 10 11 16
b 2 3 9 1 14 4 11
b 3 9 1 15 8 14 4 10 5 11
b 4 7 13 15 8 4 11
b 5 13 1 15 8 14 4 10 5 11
b 6 12 15 14 10 11 6
b 7 1 15 8 14 4 10 5 11 16 6
1 7
7 3
7 5
7 6
3 2
5 4
